files/upTests/_tuples_of_matrix/withFuncMuti/0007.eprime
language ESSENCE' 1.0

find pain_tuple1_tuple1: matrix indexed by [int(1, 2, 3)] of int(1, 2)
find pain_tuple1_tuple2_AsReln_RelationIntMatrix2:
        matrix indexed by [int(1, 2, 3), int(1..2), int(-1, 1)] of bool
find pain_tuple1_tuple2_AsReln_RelationAsSet_SetExplicitVarSize_tuple1:
        matrix indexed by [int(1, 2, 3), int(1..4)] of bool
find pain_tuple1_tuple2_AsReln_RelationAsSet_SetExplicitVarSize_tuple2_tuple1:
        matrix indexed by [int(1, 2, 3), int(1..4)] of int(1..2)
find pain_tuple1_tuple2_AsReln_RelationAsSet_SetExplicitVarSize_tuple2_tuple2:
        matrix indexed by [int(1, 2, 3), int(1..4)] of int(-1, 1)
find pain_tuple1_tuple3: matrix indexed by [int(1, 2, 3)] of int(4, 5)
such that
    (sum v__0 : int(1..2)
         . (sum v__1 : int(-1, 1)
                . (v__0 = 1 /\ pain_tuple1_tuple2_AsReln_RelationIntMatrix2[1, v__0, v__1])
                  *
                  v__1))
    !=
    -1,
    (sum v__0 : int(1..4)
         . (pain_tuple1_tuple2_AsReln_RelationAsSet_SetExplicitVarSize_tuple2_tuple1[2,
                                                                                     v__0]
            =
            1
            /\
            pain_tuple1_tuple2_AsReln_RelationAsSet_SetExplicitVarSize_tuple1[2, v__0])
           *
           pain_tuple1_tuple2_AsReln_RelationAsSet_SetExplicitVarSize_tuple2_tuple2[2,
                                                                                    v__0])
    !=
    1,
    (sum v__0 : int(1..4)
         . (pain_tuple1_tuple2_AsReln_RelationAsSet_SetExplicitVarSize_tuple2_tuple1[3,
                                                                                     v__0]
            =
            1
            /\
            pain_tuple1_tuple2_AsReln_RelationAsSet_SetExplicitVarSize_tuple1[3, v__0])
           *
           pain_tuple1_tuple2_AsReln_RelationAsSet_SetExplicitVarSize_tuple2_tuple2[3,
                                                                                    v__0])
    !=
    -1,
    pain_tuple1_tuple1[1] = 2,
    pain_tuple1_tuple1[2] = 1,
    pain_tuple1_tuple1[3] = 2,
    pain_tuple1_tuple3[1] = 4,
    pain_tuple1_tuple3[2] = 5,
    pain_tuple1_tuple3[3] = 4,
    forAll v__0 : int(1, 2, 3)
        . (forAll v__1 : int(1..3)
               . pain_tuple1_tuple2_AsReln_RelationAsSet_SetExplicitVarSize_tuple1[v__0, v__1]
                 /\
                 pain_tuple1_tuple2_AsReln_RelationAsSet_SetExplicitVarSize_tuple1[v__0,
                                                                                   v__1 + 1]
                 ->
                 pain_tuple1_tuple2_AsReln_RelationAsSet_SetExplicitVarSize_tuple2_tuple1[v__0,
                                                                                          v__1]
                 <
                 pain_tuple1_tuple2_AsReln_RelationAsSet_SetExplicitVarSize_tuple2_tuple1[v__0,
                                                                                          v__1 + 1]
                 \/
                 pain_tuple1_tuple2_AsReln_RelationAsSet_SetExplicitVarSize_tuple2_tuple1[v__0,
                                                                                          v__1]
                 =
                 pain_tuple1_tuple2_AsReln_RelationAsSet_SetExplicitVarSize_tuple2_tuple1[v__0,
                                                                                          v__1 + 1]
                 /\
                 pain_tuple1_tuple2_AsReln_RelationAsSet_SetExplicitVarSize_tuple2_tuple2[v__0,
                                                                                          v__1]
                 <
                 pain_tuple1_tuple2_AsReln_RelationAsSet_SetExplicitVarSize_tuple2_tuple2[v__0,
                                                                                          v__1 + 1])
          /\
          (forAll v__1 : int(1..3)
               . pain_tuple1_tuple2_AsReln_RelationAsSet_SetExplicitVarSize_tuple1[v__0, v__1]
                 <=
                 pain_tuple1_tuple2_AsReln_RelationAsSet_SetExplicitVarSize_tuple1[v__0,
                                                                                   v__1 + 1]),
    forAll v__0 : int(1, 2, 3)
        . (forAll v__1 : int(1..4)
               . pain_tuple1_tuple2_AsReln_RelationAsSet_SetExplicitVarSize_tuple1[v__0, v__1]
                 ->
                 (exists v__2 : int(1..2)
                      . (exists v__3 : int(-1, 1)
                             . pain_tuple1_tuple2_AsReln_RelationIntMatrix2[v__0, v__2, v__3]
                               /\
                               (v__2
                                =
                                pain_tuple1_tuple2_AsReln_RelationAsSet_SetExplicitVarSize_tuple2_tuple1[v__0,
                                                                                                         v__1]
                                /\
                                v__3
                                =
                                pain_tuple1_tuple2_AsReln_RelationAsSet_SetExplicitVarSize_tuple2_tuple2[v__0,
                                                                                                         v__1]))))
          /\
          (forAll v__1 : int(1..2)
               . (forAll v__2 : int(-1, 1)
                      . pain_tuple1_tuple2_AsReln_RelationIntMatrix2[v__0, v__1, v__2]
                        ->
                        (exists v__3 : int(1..4)
                             . pain_tuple1_tuple2_AsReln_RelationAsSet_SetExplicitVarSize_tuple1[v__0, v__3]
                               /\
                               (pain_tuple1_tuple2_AsReln_RelationAsSet_SetExplicitVarSize_tuple2_tuple1[v__0,
                                                                                                         v__3]
                                =
                                v__1
                                /\
                                pain_tuple1_tuple2_AsReln_RelationAsSet_SetExplicitVarSize_tuple2_tuple2[v__0,
                                                                                                         v__3]
                                =
                                v__2)))),
    forAll v__0 : int(1, 2, 3)
        . (forAll v__1 : int(1..2)
               . (sum v__2 : int(1..2)
                      . (sum v__3 : int(-1, 1)
                             . pain_tuple1_tuple2_AsReln_RelationIntMatrix2[v__0, v__2, v__3]
                               *
                               (v__1 = v__2)))
                 =
                 1),
    forAll v__0 : int(1, 2, 3)
        . (forAll v__1 : int(1..2)
               . (sum v__2 : int(1..4)
                      . pain_tuple1_tuple2_AsReln_RelationAsSet_SetExplicitVarSize_tuple1[v__0, v__2]
                        *
                        (v__1
                         =
                         pain_tuple1_tuple2_AsReln_RelationAsSet_SetExplicitVarSize_tuple2_tuple1[v__0,
                                                                                                  v__2]))
                 =
                 1)
